; benchmark generated from python API
(set-info :status unknown)
(declare-fun syscall_stub_newfstatat_83_64 () (_ BitVec 64))
(declare-fun mem_c0000f45_79_992 () (_ BitVec 992))
(declare-fun mem_c0001010_98_32 () (_ BitVec 32))
(declare-fun mem_fffffffffffbfff0_137_64 () (_ BitVec 64))
(declare-fun mem_1_149_64 () (_ BitVec 64))
(declare-fun mem_f800000000000000_165_64 () (_ BitVec 64))
(declare-fun mem_f800000000000010_164_32 () (_ BitVec 32))
(declare-fun mem_11_148_32 () (_ BitVec 32))
(declare-fun mem_fffffffffffc0000_136_32 () (_ BitVec 32))
(assert
 (let ((?x47 ((_ extract 31 0) syscall_stub_newfstatat_83_64)))
 (let (($x52 (bvule ?x47 (_ bv4294963200 32))))
 (not $x52))))
(assert
 (let ((?x2189 ((_ extract 900 900) mem_c0000f45_79_992)))
 (= (_ bv0 1) ?x2189)))
(assert
 (let ((?x3699 ((_ extract 891 891) mem_c0000f45_79_992)))
 (= (_ bv0 1) ?x3699)))
(assert
 (let ((?x2374 ((_ extract 839 832) mem_c0000f45_79_992)))
 (let ((?x2364 ((_ extract 831 824) mem_c0000f45_79_992)))
 (let ((?x2349 ((_ extract 823 816) mem_c0000f45_79_992)))
 (let ((?x2357 ((_ extract 815 808) mem_c0000f45_79_992)))
 (let ((?x2362 ((_ extract 807 800) mem_c0000f45_79_992)))
 (let ((?x2363 ((_ extract 799 792) mem_c0000f45_79_992)))
 (let ((?x593 (concat (concat ((_ extract 783 776) mem_c0000f45_79_992) ((_ extract 791 784) mem_c0000f45_79_992)) ?x2363)))
 (let ((?x4215 (concat (concat (concat (concat ?x593 ?x2362) ?x2357) ?x2349) ?x2364)))
 (let ((?x3812 (concat ?x4215 ?x2374)))
 (let ((?x2427 ((_ extract 775 768) mem_c0000f45_79_992)))
 (let ((?x2419 ((_ extract 767 760) mem_c0000f45_79_992)))
 (let ((?x2429 ((_ extract 759 752) mem_c0000f45_79_992)))
 (let ((?x2417 ((_ extract 751 744) mem_c0000f45_79_992)))
 (let ((?x2410 ((_ extract 743 736) mem_c0000f45_79_992)))
 (let ((?x2411 ((_ extract 735 728) mem_c0000f45_79_992)))
 (let ((?x4124 (concat (concat ((_ extract 719 712) mem_c0000f45_79_992) ((_ extract 727 720) mem_c0000f45_79_992)) ?x2411)))
 (let ((?x3823 (concat (concat (concat (concat (concat ?x4124 ?x2410) ?x2417) ?x2429) ?x2419) ?x2427)))
 (bvule ?x3823 ?x3812)))))))))))))))))))
(assert
 (let ((?x8705 ((_ extract 888 888) mem_c0000f45_79_992)))
 (= (_ bv0 1) ?x8705)))
(assert
 (let ((?x11985 ((_ extract 135 128) mem_c0000f45_79_992)))
 (= (_ bv240 8) ?x11985)))
(assert
 (let ((?x13685 ((_ extract 127 120) mem_c0000f45_79_992)))
 (= (_ bv255 8) ?x13685)))
(assert
 (let ((?x13262 ((_ extract 119 112) mem_c0000f45_79_992)))
 (= (_ bv251 8) ?x13262)))
(assert
 (let ((?x13139 ((_ extract 111 104) mem_c0000f45_79_992)))
 (= (_ bv255 8) ?x13139)))
(assert
 (let ((?x12096 ((_ extract 103 96) mem_c0000f45_79_992)))
 (= (_ bv255 8) ?x12096)))
(assert
 (let ((?x12093 ((_ extract 95 88) mem_c0000f45_79_992)))
 (= (_ bv255 8) ?x12093)))
(assert
 (let ((?x12627 ((_ extract 87 80) mem_c0000f45_79_992)))
 (= (_ bv255 8) ?x12627)))
(assert
 (let ((?x12622 ((_ extract 79 72) mem_c0000f45_79_992)))
 (= (_ bv255 8) ?x12622)))
(assert
 (let ((?x2357 ((_ extract 815 808) mem_c0000f45_79_992)))
 (let ((?x2417 ((_ extract 751 744) mem_c0000f45_79_992)))
 (let (($x1690 (= ?x2417 ?x2357)))
 (let (($x3670 (not $x1690)))
 (let ((?x2362 ((_ extract 807 800) mem_c0000f45_79_992)))
 (let ((?x2410 ((_ extract 743 736) mem_c0000f45_79_992)))
 (let (($x1703 (= ?x2410 ?x2362)))
 (let (($x3664 (not $x1703)))
 (let ((?x2345 ((_ extract 783 776) mem_c0000f45_79_992)))
 (let ((?x2400 ((_ extract 719 712) mem_c0000f45_79_992)))
 (let (($x1701 (= ?x2400 ?x2345)))
 (let (($x3671 (not $x1701)))
 (let ((?x2363 ((_ extract 799 792) mem_c0000f45_79_992)))
 (let ((?x2411 ((_ extract 735 728) mem_c0000f45_79_992)))
 (let (($x1704 (= ?x2411 ?x2363)))
 (let (($x3672 (not $x1704)))
 (let ((?x2346 ((_ extract 791 784) mem_c0000f45_79_992)))
 (let ((?x2401 ((_ extract 727 720) mem_c0000f45_79_992)))
 (let (($x1693 (= ?x2401 ?x2346)))
 (let (($x4136 (not $x1693)))
 (let ((?x2364 ((_ extract 831 824) mem_c0000f45_79_992)))
 (let ((?x2419 ((_ extract 767 760) mem_c0000f45_79_992)))
 (let (($x1155 (= ?x2419 ?x2364)))
 (let (($x4137 (not $x1155)))
 (let ((?x2374 ((_ extract 839 832) mem_c0000f45_79_992)))
 (let ((?x2427 ((_ extract 775 768) mem_c0000f45_79_992)))
 (let (($x1152 (= ?x2427 ?x2374)))
 (let (($x4139 (not $x1152)))
 (let ((?x2349 ((_ extract 823 816) mem_c0000f45_79_992)))
 (let ((?x2429 ((_ extract 759 752) mem_c0000f45_79_992)))
 (let (($x1714 (= ?x2429 ?x2349)))
 (let (($x4539 (not $x1714)))
 (let (($x6038 (or $x4539 $x4139 $x4137 $x4136 $x3672 $x3671 $x3664 $x3670)))
 (let (($x9215 (not $x6038)))
 (let ((?x4533 (concat (concat (concat (concat (concat ?x2345 ?x2346) ?x2363) ?x2362) ?x2357) ?x2349)))
 (let ((?x4215 (concat ?x4533 ?x2364)))
 (let ((?x3812 (concat ?x4215 ?x2374)))
 (let ((?x3646 (bvmul (_ bv18446744073709551615 64) ?x3812)))
 (let ((?x3809 (concat (concat (concat (concat (concat ?x2400 ?x2401) ?x2411) ?x2410) ?x2417) ?x2429)))
 (let ((?x3823 (concat (concat ?x3809 ?x2419) ?x2427)))
 (let ((?x3827 (bvadd ?x3823 ?x3646)))
 (let ((?x2482 ((_ extract 63 63) ?x3827)))
 (let (($x2285 (= (_ bv1 1) ?x2482)))
 (or $x2285 $x9215)))))))))))))))))))))))))))))))))))))))))))))
(assert
 (= (_ bv0 32) mem_c0001010_98_32))
(assert
 (= (_ bv1 64) mem_fffffffffffbfff0_137_64))
(assert
 (= (_ bv17870283321406128128 64) mem_1_149_64))
(assert
 (= (_ bv0 64) mem_f800000000000000_165_64))
(assert
 (let ((?x14859 (concat ((_ extract 7 0) ((_ extract 327 264) mem_c0000f45_79_992)) ((_ extract 15 8) ((_ extract 327 264) mem_c0000f45_79_992)))))
 (let ((?x14841 (concat (concat ?x14859 ((_ extract 23 16) ((_ extract 327 264) mem_c0000f45_79_992))) ((_ extract 31 24) ((_ extract 327 264) mem_c0000f45_79_992)))))
 (let ((?x14995 (concat (concat ?x14841 ((_ extract 39 32) ((_ extract 327 264) mem_c0000f45_79_992))) ((_ extract 47 40) ((_ extract 327 264) mem_c0000f45_79_992)))))
 (let ((?x14843 (concat (concat ?x14995 ((_ extract 55 48) ((_ extract 327 264) mem_c0000f45_79_992))) ((_ extract 63 56) ((_ extract 327 264) mem_c0000f45_79_992)))))
 (let ((?x48842 (concat ((_ extract 7 0) ((_ extract 199 136) mem_c0000f45_79_992)) ((_ extract 15 8) ((_ extract 199 136) mem_c0000f45_79_992)))))
 (let ((?x48584 (concat (concat ?x48842 ((_ extract 23 16) ((_ extract 199 136) mem_c0000f45_79_992))) ((_ extract 31 24) ((_ extract 199 136) mem_c0000f45_79_992)))))
 (let ((?x47537 (concat (concat ?x48584 ((_ extract 39 32) ((_ extract 199 136) mem_c0000f45_79_992))) ((_ extract 47 40) ((_ extract 199 136) mem_c0000f45_79_992)))))
 (let ((?x49624 (concat (concat ?x47537 ((_ extract 55 48) ((_ extract 199 136) mem_c0000f45_79_992))) ((_ extract 63 56) ((_ extract 199 136) mem_c0000f45_79_992)))))
 (let ((?x47949 (bvsub ?x49624 ?x14843)))
 (let ((?x49755 ((_ extract 31 31) mem_f800000000000010_164_32)))
 (let ((?x66246 (concat (concat (concat (concat (concat ?x49755 ?x49755) ?x49755) ?x49755) ?x49755) ?x49755)))
 (let ((?x66673 (concat (concat (concat (concat (concat ?x66246 ?x49755) ?x49755) ?x49755) ?x49755) ?x49755)))
 (let ((?x66828 (concat (concat (concat (concat (concat ?x66673 ?x49755) ?x49755) ?x49755) ?x49755) ?x49755)))
 (let ((?x66795 (concat (concat (concat (concat (concat ?x66828 ?x49755) ?x49755) ?x49755) ?x49755) ?x49755)))
 (let ((?x66810 (concat (concat (concat (concat (concat ?x66795 ?x49755) ?x49755) ?x49755) ?x49755) ?x49755)))
 (let ((?x66812 (concat (concat (concat (concat (concat ?x66810 ?x49755) ?x49755) ?x49755) ?x49755) ?x49755)))
 (let ((?x67365 (concat (concat ?x66812 ?x49755) mem_f800000000000010_164_32)))
 (let ((?x39632 ((_ extract 31 31) mem_11_148_32)))
 (let ((?x50648 (concat (concat (concat (concat (concat ?x39632 ?x39632) ?x39632) ?x39632) ?x39632) ?x39632)))
 (let ((?x50639 (concat (concat (concat (concat (concat ?x50648 ?x39632) ?x39632) ?x39632) ?x39632) ?x39632)))
 (let ((?x49793 (concat (concat (concat (concat (concat ?x50639 ?x39632) ?x39632) ?x39632) ?x39632) ?x39632)))
 (let ((?x53232 (concat (concat (concat (concat (concat ?x49793 ?x39632) ?x39632) ?x39632) ?x39632) ?x39632)))
 (let ((?x54233 (concat (concat (concat (concat (concat ?x53232 ?x39632) ?x39632) ?x39632) ?x39632) ?x39632)))
 (let ((?x50311 (concat (concat (concat (concat (concat ?x54233 ?x39632) ?x39632) ?x39632) ?x39632) ?x39632)))
 (let ((?x47376 (concat (concat ?x50311 ?x39632) mem_11_148_32)))
 (let ((?x34397 ((_ extract 31 31) mem_fffffffffffc0000_136_32)))
 (let ((?x45802 (concat (concat (concat (concat (concat ?x34397 ?x34397) ?x34397) ?x34397) ?x34397) ?x34397)))
 (let ((?x44216 (concat (concat (concat (concat (concat ?x45802 ?x34397) ?x34397) ?x34397) ?x34397) ?x34397)))
 (let ((?x45941 (concat (concat (concat (concat (concat ?x44216 ?x34397) ?x34397) ?x34397) ?x34397) ?x34397)))
 (let ((?x41892 (concat (concat (concat (concat (concat ?x45941 ?x34397) ?x34397) ?x34397) ?x34397) ?x34397)))
 (let ((?x43980 (concat (concat (concat (concat (concat ?x41892 ?x34397) ?x34397) ?x34397) ?x34397) ?x34397)))
 (let ((?x44074 (concat (concat (concat (concat (concat ?x43980 ?x34397) ?x34397) ?x34397) ?x34397) ?x34397)))
 (let ((?x45265 (concat (concat ?x44074 ?x34397) mem_fffffffffffc0000_136_32)))
 (let ((?x15063 ((_ extract 711 704) mem_c0000f45_79_992)))
 (let ((?x15088 ((_ extract 703 696) mem_c0000f45_79_992)))
 (let ((?x15060 ((_ extract 695 688) mem_c0000f45_79_992)))
 (let ((?x15062 ((_ extract 687 680) mem_c0000f45_79_992)))
 (let ((?x15075 ((_ extract 679 672) mem_c0000f45_79_992)))
 (let ((?x15070 ((_ extract 671 664) mem_c0000f45_79_992)))
 (let ((?x29710 (concat (concat ((_ extract 655 648) mem_c0000f45_79_992) ((_ extract 663 656) mem_c0000f45_79_992)) ?x15070)))
 (let ((?x31872 (concat (concat (concat (concat (concat ?x29710 ?x15075) ?x15062) ?x15060) ?x15088) ?x15063)))
 (let ((?x31697 (bvmul (_ bv18446744073709551615 64) ?x31872)))
 (let ((?x2427 ((_ extract 775 768) mem_c0000f45_79_992)))
 (let ((?x2419 ((_ extract 767 760) mem_c0000f45_79_992)))
 (let ((?x2429 ((_ extract 759 752) mem_c0000f45_79_992)))
 (let ((?x2417 ((_ extract 751 744) mem_c0000f45_79_992)))
 (let ((?x2410 ((_ extract 743 736) mem_c0000f45_79_992)))
 (let ((?x2411 ((_ extract 735 728) mem_c0000f45_79_992)))
 (let ((?x4124 (concat (concat ((_ extract 719 712) mem_c0000f45_79_992) ((_ extract 727 720) mem_c0000f45_79_992)) ?x2411)))
 (let ((?x3823 (concat (concat (concat (concat (concat ?x4124 ?x2410) ?x2417) ?x2429) ?x2419) ?x2427)))
 (let ((?x32022 (bvadd ?x3823 ?x31697)))
 (let (($x45792 (bvsle ?x32022 ?x45265)))
 (let ((?x43374 (ite $x45792 ?x32022 ?x45265)))
 (let (($x63572 (bvsle ?x43374 ?x47376)))
 (let ((?x51254 (ite $x63572 ?x43374 ?x47376)))
 (let (($x66859 (bvsle ?x51254 ?x67365)))
 (let ((?x66883 (ite $x66859 ?x51254 ?x67365)))
 (let ((?x15086 (concat ((_ extract 7 0) ((_ extract 711 648) mem_c0000f45_79_992)) ((_ extract 15 8) ((_ extract 711 648) mem_c0000f45_79_992)))))
 (let ((?x15058 (concat (concat ?x15086 ((_ extract 23 16) ((_ extract 711 648) mem_c0000f45_79_992))) ((_ extract 31 24) ((_ extract 711 648) mem_c0000f45_79_992)))))
 (let ((?x15077 (concat (concat ?x15058 ((_ extract 39 32) ((_ extract 711 648) mem_c0000f45_79_992))) ((_ extract 47 40) ((_ extract 711 648) mem_c0000f45_79_992)))))
 (let ((?x15074 (concat (concat ?x15077 ((_ extract 55 48) ((_ extract 711 648) mem_c0000f45_79_992))) ((_ extract 63 56) ((_ extract 711 648) mem_c0000f45_79_992)))))
 (let ((?x25492 (bvsub ?x3823 ?x15074)))
 (let ((?x98269 (bvsub ?x25492 ?x66883)))
 (bvugt ?x98269 ?x47949)))))))))))))))))))))))))))))))))))))))))))))))))))))))))))))))))
(minimize mem_fffffffffffc0000_136_32)
(minimize mem_c0000f45_79_992)
(maximize mem_c0001010_98_32)
(maximize syscall_stub_newfstatat_83_64)
(minimize mem_11_148_32)
(maximize mem_f800000000000000_165_64)
(maximize mem_1_149_64)
(maximize mem_11_148_32)
(minimize syscall_stub_newfstatat_83_64)
(minimize mem_fffffffffffbfff0_137_64)
(maximize mem_fffffffffffc0000_136_32)
(minimize mem_f800000000000010_164_32)
(maximize mem_c0000f45_79_992)
(minimize mem_f800000000000000_165_64)
(check-sat)
(get-objectives)
